Assets/LKHProbs~/skull.25.tsp
NAME : GeneratedProblem
COMMENT : SVGCrosshatch
TYPE : TSP
DIMENSION : 42
EDGE_WEIGHT_TYPE : EUC_2D
NODE_COORD_SECTION
1 8000 5900
2 8100 5800
3 8100 5900
4 8200 5900
5 8300 5300
6 8300 5400
7 8300 5500
8 8300 5600
9 8400 5100
10 8400 5200
11 8400 5300
12 8400 5400
13 8400 5500
14 8400 5600
15 8500 4900
16 8500 5000
17 8500 5100
18 8500 5200
19 8500 5300
20 8500 5400
21 8500 5500
22 8500 5600
23 8600 4700
24 8600 4800
25 8600 4900
26 8600 5000
27 8600 5100
28 8600 5200
29 8600 5300
30 8600 5400
31 8600 5500
32 8600 5600
33 8700 5500
34 8700 5600
35 8700 5700
36 8700 5800
37 8700 5900
38 8800 5500
39 8800 5600
40 8800 5700
41 8800 5800
42 8800 5900
EOF
