Assets/LKHProbs~/skull.25.out.txt
NAME : GeneratedProblem.4809.tour
COMMENT : Length = 4809
COMMENT : Found by LKH [Keld Helsgaun] Sun Nov 25 13:17:41 2018
TYPE : TOUR
DIMENSION : 42
TOUR_SECTION
1
2
8
7
6
5
11
10
9
17
16
15
23
24
25
26
27
28
18
19
29
30
31
33
38
39
40
41
42
37
36
35
34
32
22
21
20
12
13
14
4
3
-1
EOF
